# Objective value = 5.4947400000000007e+03
I_0_0 2155
I_0_1 3016
I_0_2 2711
I_0_3 2371
I_0_4 2.7290000000000018e+03
I_0_5 2.3230000000000023e+03
I_0_6 3.1840000000000023e+03
I_1_0 198
I_1_1 99
I_1_2 1.7053025658242404e-13
I_1_3 1.9799999999999986e+02
I_1_4 9.8999999999998920e+01
I_1_5 198
I_1_6 99
I_2_0 116
I_2_1 58
I_2_2 116
I_2_3 116
I_2_4 5.8000000000000057e+01
I_2_5 1.1599999999999966e+02
I_2_6 5.7999999999999659e+01
I_3_0 55
I_3_1 0
I_3_2 55
I_3_3 55
I_3_4 0
I_3_5 5.5000000000000014e+01
I_3_6 0
I_4_0 76
I_4_1 0
I_4_2 76
I_4_3 76
I_4_4 0
I_4_5 76
I_4_6 0
I_5_0 83
I_5_1 0
I_5_2 83
I_5_3 0
I_5_4 83
I_5_5 83
I_5_6 0
I_6_0 92
I_6_1 0
I_6_2 92
I_6_3 9.2000000000000057e+01
I_6_4 0
I_6_5 92
I_6_6 1.4523104940877829e-14
I_7_0 68
I_7_1 34
I_7_2 0
I_7_3 68
I_7_4 34
I_7_5 6.7999999999999972e+01
I_7_6 3.3999999999999972e+01
I_8_0 126
I_8_1 63
I_8_2 -1.1368683772161603e-13
I_8_3 1.2600000000000026e+02
I_8_4 6.2999999999999957e+01
I_8_5 1.2600000000000013e+02
I_8_6 6.3000000000000036e+01
I_9_0 46
I_9_1 0
I_9_2 46
I_9_3 4.6000000000000050e+01
I_9_4 -5.0431880893597736e-14
I_9_5 46
I_9_6 0
I_10_0 194
I_10_1 97
I_10_2 1.9399999999999994e+02
I_10_3 9.6999999999999943e+01
I_10_4 194
I_10_5 9.6999999999999559e+01
I_10_6 -9.2743668017563262e-14
I_11_0 30
I_11_1 0
I_11_2 30
I_11_3 3.0000000000000014e+01
I_11_4 0
I_11_5 30
I_11_6 0
I_12_0 36
I_12_1 0
I_12_2 3.5999999999999957e+01
I_12_3 0
I_12_4 36
I_12_5 36
I_12_6 0
I_13_0 142
I_13_1 71
I_13_2 -2.8421709430404007e-13
I_13_3 1.4200000000000023e+02
I_13_4 1.4200000000000006e+02
I_13_5 7.0999999999999829e+01
I_13_6 -9.5923269327613525e-14
I_14_0 22
I_14_1 11
I_14_2 7.1054273576010019e-15
I_14_3 2.1999999999999996e+01
I_14_4 1.1000000000000005e+01
I_14_5 22
I_14_6 1.0999999999999998e+01
I_15_0 10
I_15_1 0
I_15_2 10
I_15_3 1.0000000000000011e+01
I_15_4 -9.3675067702747583e-15
I_15_5 10
I_15_6 0
q_1_0 0
q_1_1 1.1013412404281553e-13
q_1_2 2.9699999999999972e+02
q_1_3 -9.2725827016693074e-13
q_1_4 1.9800000000000105e+02
q_1_5 0
q_2_0 0
q_2_1 116
q_2_2 58
q_2_3 5.3290705182007514e-14
q_2_4 1.1599999999999963e+02
q_2_5 0
q_3_0 0
q_3_1 110
q_3_2 55
q_3_3 0
q_3_4 1.1000000000000001e+02
q_3_5 -1.4210854715202004e-14
q_4_0 0
q_4_1 152
q_4_2 76
q_4_3 0
q_4_4 152
q_4_5 0
q_5_0 0
q_5_1 166
q_5_2 0
q_5_3 166
q_5_4 83
q_5_5 0
q_6_0 0
q_6_1 184
q_6_2 9.2000000000000057e+01
q_6_3 -5.6843418860808015e-14
q_6_4 184
q_6_5 1.4523104940877829e-14
q_7_0 0
q_7_1 0
q_7_2 102
q_7_3 0
q_7_4 6.7999999999999972e+01
q_7_5 -4.1506127818498062e-13
q_8_0 0
q_8_1 -1.2700951401711791e-13
q_8_2 1.8900000000000037e+02
q_8_3 -1.0378364834195963e-12
q_8_4 1.2600000000000014e+02
q_8_5 0
q_9_0 0
q_9_1 92
q_9_2 4.6000000000000050e+01
q_9_3 -1.0016987239680475e-13
q_9_4 9.2000000000000057e+01
q_9_5 0
q_10_0 0
q_10_1 1.9399999999999994e+02
q_10_2 0
q_10_3 1.9400000000000006e+02
q_10_4 -4.3027811136744048e-13
q_10_5 3.3753444334987725e-13
q_11_0 0
q_11_1 60
q_11_2 3.0000000000000014e+01
q_11_3 -1.4210854715202004e-14
q_11_4 60
q_11_5 0
q_12_0 0
q_12_1 7.1999999999999957e+01
q_12_2 4.2632564145606011e-14
q_12_3 72
q_12_4 36
q_12_5 0
q_13_0 0
q_13_1 -1.4566126083082054e-13
q_13_2 2.1300000000000051e+02
q_13_3 7.0999999999999858e+01
q_13_4 -1.6697754290362354e-13
q_13_5 7.4471557966466792e-14
q_14_0 0
q_14_1 0
q_14_2 3.2999999999999993e+01
q_14_3 8.2156503822261584e-15
q_14_4 2.1999999999999989e+01
q_14_5 0
q_15_0 0
q_15_1 20
q_15_2 1.0000000000000011e+01
q_15_3 -2.0025647806676261e-14
q_15_4 2.0000000000000007e+01
q_15_5 0
y_0_0 0
y_0_1 1
y_0_2 1
y_0_3 1
y_0_4 1
y_0_5 0
y_1_0 0
y_1_1 5.1347814888913490e-16
y_1_2 9.9999999999999911e-01
y_1_3 -1.0963452368173421e-15
y_1_4 1.0000000000000013e+00
y_1_5 0
y_2_0 0
y_2_1 1
y_2_2 1
y_2_3 3.1918911957973251e-16
y_2_4 9.9999999999999722e-01
y_2_5 0
y_3_0 0
y_3_1 1
y_3_2 1
y_3_3 0
y_3_4 1.0000000000000002e+00
y_3_5 0
y_4_0 0
y_4_1 1
y_4_2 1
y_4_3 0
y_4_4 1
y_4_5 0
y_5_0 0
y_5_1 1
y_5_2 0
y_5_3 1
y_5_4 1
y_5_5 0
y_6_0 0
y_6_1 1
y_6_2 1.0000000000000007e+00
y_6_3 0
y_6_4 1
y_6_5 1.5785983631388945e-16
y_7_0 0
y_7_1 0
y_7_2 1
y_7_3 0
y_7_4 1.0000000000000002e+00
y_7_5 0
y_8_0 0
y_8_1 -1.0269562977782698e-15
y_8_2 1.0000000000000027e+00
y_8_3 -1.3114509478384662e-15
y_8_4 1.0000000000000013e+00
y_8_5 0
y_9_0 0
y_9_1 1
y_9_2 1.0000000000000011e+00
y_9_3 -1.0963452368173421e-15
y_9_4 1
y_9_5 0
y_10_0 0
y_10_1 9.9999999999999978e-01
y_10_2 0
y_10_3 1.0000000000000013e+00
y_10_4 -1.5102016369180948e-15
y_10_5 2.8969882048812678e-16
y_11_0 0
y_11_1 1
y_11_2 1.0000000000000004e+00
y_11_3 0
y_11_4 1
y_11_5 0
y_12_0 0
y_12_1 9.9999999999999878e-01
y_12_2 0
y_12_3 1
y_12_4 1
y_12_5 0
y_13_0 0
y_13_1 -1.0338951916821770e-15
y_13_2 1.0000000000000020e+00
y_13_3 1.0000000000000011e+00
y_13_4 -2.7755575615628914e-16
y_13_5 -6.9388939039072284e-16
y_14_0 0
y_14_1 -2.7755575615628914e-17
y_14_2 1
y_14_3 3.6082248300317588e-16
y_14_4 9.9999999999999989e-01
y_14_5 0
y_15_0 0
y_15_1 1
y_15_2 1.0000000000000011e+00
y_15_3 -9.3675067702747583e-16
y_15_4 1
y_15_5 0
x_0_1_0 0
x_0_1_1 0
x_0_1_2 0
x_0_1_3 0
x_0_1_4 0
x_0_1_5 0
x_0_2_0 0
x_0_2_1 0
x_0_2_2 0
x_0_2_3 0
x_0_2_4 0
x_0_2_5 0
x_0_3_0 0
x_0_3_1 0
x_0_3_2 0
x_0_3_3 0
x_0_3_4 0
x_0_3_5 0
x_0_4_0 0
x_0_4_1 0
x_0_4_2 0
x_0_4_3 0
x_0_4_4 0
x_0_4_5 0
x_0_5_0 0
x_0_5_1 0
x_0_5_2 0
x_0_5_3 0
x_0_5_4 0
x_0_5_5 0
x_0_6_0 0
x_0_6_1 1.0000000000000011e+00
x_0_6_2 1.0000000000000002e+00
x_0_6_3 -1.4432899320127035e-15
x_0_6_4 1.0000000000000031e+00
x_0_6_5 0
x_0_7_0 0
x_0_7_1 0
x_0_7_2 0
x_0_7_3 0
x_0_7_4 0
x_0_7_5 0
x_0_8_0 0
x_0_8_1 0
x_0_8_2 0
x_0_8_3 0
x_0_8_4 0
x_0_8_5 0
x_0_9_0 0
x_0_9_1 0
x_0_9_2 0
x_0_9_3 0
x_0_9_4 0
x_0_9_5 0
x_0_10_0 0
x_0_10_1 0.999999999999998
x_0_10_2 0
x_0_10_3 1
x_0_10_4 -2.8796409701215e-16
x_0_10_5 5.7939764097625357e-16
x_0_11_0 0
x_0_11_1 0
x_0_11_2 0
x_0_11_3 0
x_0_11_4 0
x_0_11_5 0
x_0_12_0 0
x_0_12_1 0
x_0_12_2 0
x_0_12_3 0
x_0_12_4 1.0000000000000031e+00
x_0_12_5 6.9388939039072284e-16
x_0_13_0 0
x_0_13_1 0
x_0_13_2 1.0000000000000033e+00
x_0_13_3 1.0000000000000011e+00
x_0_13_4 -2.7755575615628914e-16
x_0_13_5 -9.9920072216264089e-16
x_0_14_0 0
x_0_14_1 0
x_0_14_2 0
x_0_14_3 0
x_0_14_4 0
x_0_14_5 0
x_0_15_0 0
x_0_15_1 0
x_0_15_2 0
x_0_15_3 0
x_0_15_4 0
x_0_15_5 0
x_1_2_0 0
x_1_2_1 0
x_1_2_2 0
x_1_2_3 0
x_1_2_4 0
x_1_2_5 0
x_1_3_0 0
x_1_3_1 0
x_1_3_2 0
x_1_3_3 0
x_1_3_4 0
x_1_3_5 0
x_1_4_0 0
x_1_4_1 0
x_1_4_2 0
x_1_4_3 0
x_1_4_4 0
x_1_4_5 0
x_1_5_0 0
x_1_5_1 0
x_1_5_2 0
x_1_5_3 0
x_1_5_4 0
x_1_5_5 0
x_1_6_0 0
x_1_6_1 0
x_1_6_2 0
x_1_6_3 0
x_1_6_4 0
x_1_6_5 0
x_1_7_0 0
x_1_7_1 0
x_1_7_2 0
x_1_7_3 0
x_1_7_4 0
x_1_7_5 0
x_1_8_0 0
x_1_8_1 0
x_1_8_2 0
x_1_8_3 0
x_1_8_4 0
x_1_8_5 0
x_1_9_0 0
x_1_9_1 -4.3715031594615539e-16
x_1_9_2 0
x_1_9_3 -2.1926904736346842e-15
x_1_9_4 1.0000000000000031e+00
x_1_9_5 0
x_1_10_0 0
x_1_10_1 0
x_1_10_2 0
x_1_10_3 0
x_1_10_4 0
x_1_10_5 0
x_1_11_0 0
x_1_11_1 -6.2172489379008766e-15
x_1_11_2 0.999999999999999
x_1_11_3 -3.4694469519536142e-16
x_1_11_4 -4.2674197509029455e-16
x_1_11_5 0
x_1_12_0 0
x_1_12_1 0
x_1_12_2 0
x_1_12_3 0
x_1_12_4 0
x_1_12_5 0
x_1_13_0 0
x_1_13_1 0
x_1_13_2 0
x_1_13_3 0
x_1_13_4 0
x_1_13_5 0
x_1_14_0 0
x_1_14_1 0
x_1_14_2 9.9999999999999956e-01
x_1_14_3 3.6082248300317588e-16
x_1_14_4 9.9999999999999989e-01
x_1_14_5 0
x_1_15_0 0
x_1_15_1 0
x_1_15_2 0
x_1_15_3 0
x_1_15_4 0
x_1_15_5 0
x_2_3_0 0
x_2_3_1 1
x_2_3_2 1
x_2_3_3 3.0531133177191805e-16
x_2_3_4 9.9999999999999722e-01
x_2_3_5 0
x_2_4_0 0
x_2_4_1 1
x_2_4_2 0
x_2_4_3 0
x_2_4_4 0
x_2_4_5 0
x_2_5_0 0
x_2_5_1 0
x_2_5_2 0
x_2_5_3 0
x_2_5_4 0
x_2_5_5 0
x_2_6_0 0
x_2_6_1 0
x_2_6_2 0
x_2_6_3 0
x_2_6_4 -3.4694469519536142e-18
x_2_6_5 0
x_2_7_0 0
x_2_7_1 0
x_2_7_2 1
x_2_7_3 0
x_2_7_4 9.9999999999999722e-01
x_2_7_5 0
x_2_8_0 0
x_2_8_1 0
x_2_8_2 0
x_2_8_3 0
x_2_8_4 0
x_2_8_5 0
x_2_9_0 0
x_2_9_1 0
x_2_9_2 0
x_2_9_3 0
x_2_9_4 0
x_2_9_5 0
x_2_10_0 0
x_2_10_1 0
x_2_10_2 0
x_2_10_3 0
x_2_10_4 0
x_2_10_5 0
x_2_11_0 0
x_2_11_1 0
x_2_11_2 0
x_2_11_3 0
x_2_11_4 0
x_2_11_5 0
x_2_12_0 0
x_2_12_1 0
x_2_12_2 0
x_2_12_3 0
x_2_12_4 0
x_2_12_5 0
x_2_13_0 0
x_2_13_1 0
x_2_13_2 0
x_2_13_3 0
x_2_13_4 0
x_2_13_5 0
x_2_14_0 0
x_2_14_1 0
x_2_14_2 0
x_2_14_3 0
x_2_14_4 0
x_2_14_5 0
x_2_15_0 0
x_2_15_1 0
x_2_15_2 0
x_2_15_3 0
x_2_15_4 0
x_2_15_5 0
x_3_4_0 0
x_3_4_1 0
x_3_4_2 0
x_3_4_3 0
x_3_4_4 0
x_3_4_5 0
x_3_5_0 0
x_3_5_1 0
x_3_5_2 0
x_3_5_3 0
x_3_5_4 0
x_3_5_5 0
x_3_6_0 0
x_3_6_1 0
x_3_6_2 0
x_3_6_3 0
x_3_6_4 0
x_3_6_5 0
x_3_7_0 0
x_3_7_1 0
x_3_7_2 0
x_3_7_3 0
x_3_7_4 3.1918911957973251e-16
x_3_7_5 0
x_3_8_0 0
x_3_8_1 0
x_3_8_2 0
x_3_8_3 0
x_3_8_4 0
x_3_8_5 0
x_3_9_0 0
x_3_9_1 1
x_3_9_2 1.0000000000000018e+00
x_3_9_3 -2.4980018054066022e-16
x_3_9_4 -1.0755285551056204e-15
x_3_9_5 0
x_3_10_0 0
x_3_10_1 0
x_3_10_2 0
x_3_10_3 0
x_3_10_4 0
x_3_10_5 0
x_3_11_0 0
x_3_11_1 0
x_3_11_2 0
x_3_11_3 0
x_3_11_4 0
x_3_11_5 0
x_3_12_0 0
x_3_12_1 0
x_3_12_2 0
x_3_12_3 0
x_3_12_4 0
x_3_12_5 0
x_3_13_0 0
x_3_13_1 0
x_3_13_2 0
x_3_13_3 0
x_3_13_4 0
x_3_13_5 0
x_3_14_0 0
x_3_14_1 0
x_3_14_2 -1.0963452368173421e-15
x_3_14_3 0
x_3_14_4 1.0000000000000042e+00
x_3_14_5 0
x_3_15_0 0
x_3_15_1 0
x_3_15_2 0
x_3_15_3 0
x_3_15_4 0
x_3_15_5 0
x_4_5_0 0
x_4_5_1 0
x_4_5_2 0
x_4_5_3 0
x_4_5_4 0
x_4_5_5 0
x_4_6_0 0
x_4_6_1 1
x_4_6_2 1
x_4_6_3 0
x_4_6_4 9.9999999999999689e-01
x_4_6_5 0
x_4_7_0 0
x_4_7_1 0
x_4_7_2 1
x_4_7_3 0
x_4_7_4 1.0000000000000031e+00
x_4_7_5 0
x_4_8_0 0
x_4_8_1 0
x_4_8_2 0
x_4_8_3 0
x_4_8_4 0
x_4_8_5 0
x_4_9_0 0
x_4_9_1 0
x_4_9_2 0
x_4_9_3 0
x_4_9_4 0
x_4_9_5 0
x_4_10_0 0
x_4_10_1 0
x_4_10_2 0
x_4_10_3 0
x_4_10_4 0
x_4_10_5 0
x_4_11_0 0
x_4_11_1 0
x_4_11_2 0
x_4_11_3 0
x_4_11_4 0
x_4_11_5 0
x_4_12_0 0
x_4_12_1 0
x_4_12_2 0
x_4_12_3 0
x_4_12_4 0
x_4_12_5 0
x_4_13_0 0
x_4_13_1 0
x_4_13_2 0
x_4_13_3 0
x_4_13_4 0
x_4_13_5 0
x_4_14_0 0
x_4_14_1 0
x_4_14_2 0
x_4_14_3 0
x_4_14_4 0
x_4_14_5 0
x_4_15_0 0
x_4_15_1 0
x_4_15_2 0
x_4_15_3 0
x_4_15_4 0
x_4_15_5 0
x_5_6_0 0
x_5_6_1 0
x_5_6_2 0
x_5_6_3 0
x_5_6_4 0
x_5_6_5 0
x_5_7_0 0
x_5_7_1 0
x_5_7_2 0
x_5_7_3 0
x_5_7_4 0
x_5_7_5 0
x_5_8_0 0
x_5_8_1 0
x_5_8_2 0
x_5_8_3 0
x_5_8_4 0
x_5_8_5 0
x_5_9_0 0
x_5_9_1 0
x_5_9_2 0
x_5_9_3 0
x_5_9_4 0
x_5_9_5 0
x_5_10_0 0
x_5_10_1 0
x_5_10_2 0
x_5_10_3 0
x_5_10_4 0
x_5_10_5 0
x_5_11_0 0
x_5_11_1 0
x_5_11_2 0
x_5_11_3 0
x_5_11_4 0
x_5_11_5 0
x_5_12_0 0
x_5_12_1 9.9999999999999867e-01
x_5_12_2 0
x_5_12_3 1
x_5_12_4 1
x_5_12_5 0
x_5_13_0 0
x_5_13_1 0
x_5_13_2 0
x_5_13_3 1.0000000000000011e+00
x_5_13_4 0
x_5_13_5 0
x_5_14_0 0
x_5_14_1 0
x_5_14_2 0
x_5_14_3 0
x_5_14_4 0
x_5_14_5 0
x_5_15_0 0
x_5_15_1 1
x_5_15_2 0
x_5_15_3 -9.3675067702747583e-16
x_5_15_4 1.0000000000000016e+00
x_5_15_5 0
x_6_7_0 0
x_6_7_1 0
x_6_7_2 0
x_6_7_3 0
x_6_7_4 0
x_6_7_5 0
x_6_8_0 0
x_6_8_1 0
x_6_8_2 0
x_6_8_3 0
x_6_8_4 0
x_6_8_5 0
x_6_9_0 0
x_6_9_1 0
x_6_9_2 0
x_6_9_3 0
x_6_9_4 0
x_6_9_5 0
x_6_10_0 0
x_6_10_1 0
x_6_10_2 0
x_6_10_3 0
x_6_10_4 0
x_6_10_5 0
x_6_11_0 0
x_6_11_1 0
x_6_11_2 9.9920072216264089e-16
x_6_11_3 1.4432899320127035e-15
x_6_11_4 1.5612511283791264e-16
x_6_11_5 0
x_6_12_0 0
x_6_12_1 0
x_6_12_2 0
x_6_12_3 0
x_6_12_4 0
x_6_12_5 0
x_6_13_0 0
x_6_13_1 -1.0200174038743626e-15
x_6_13_2 0
x_6_13_3 0
x_6_13_4 0
x_6_13_5 0
x_6_14_0 0
x_6_14_1 0
x_6_14_2 0
x_6_14_3 0
x_6_14_4 0
x_6_14_5 0
x_6_15_0 0
x_6_15_1 0
x_6_15_2 0
x_6_15_3 0
x_6_15_4 0
x_6_15_5 0
x_7_8_0 0
x_7_8_1 0
x_7_8_2 0
x_7_8_3 0
x_7_8_4 0
x_7_8_5 0
x_7_9_0 0
x_7_9_1 0
x_7_9_2 0
x_7_9_3 0
x_7_9_4 0
x_7_9_5 0
x_7_10_0 0
x_7_10_1 0
x_7_10_2 0
x_7_10_3 0
x_7_10_4 0
x_7_10_5 0
x_7_11_0 0
x_7_11_1 0
x_7_11_2 0
x_7_11_3 0
x_7_11_4 0
x_7_11_5 0
x_7_12_0 0
x_7_12_1 0
x_7_12_2 0
x_7_12_3 0
x_7_12_4 0
x_7_12_5 0
x_7_13_0 0
x_7_13_1 0
x_7_13_2 0
x_7_13_3 0
x_7_13_4 0
x_7_13_5 0
x_7_14_0 0
x_7_14_1 0
x_7_14_2 0
x_7_14_3 0
x_7_14_4 0
x_7_14_5 0
x_7_15_0 0
x_7_15_1 0
x_7_15_2 0
x_7_15_3 0
x_7_15_4 0
x_7_15_5 0
x_8_9_0 0
x_8_9_1 0
x_8_9_2 0
x_8_9_3 0
x_8_9_4 0
x_8_9_5 0
x_8_10_0 0
x_8_10_1 0
x_8_10_2 0
x_8_10_3 0
x_8_10_4 0
x_8_10_5 0
x_8_11_0 0
x_8_11_1 -1.0200174038743626e-15
x_8_11_2 0
x_8_11_3 -1.4155343563970746e-15
x_8_11_4 1.0000000000000013e+00
x_8_11_5 0
x_8_12_0 0
x_8_12_1 0
x_8_12_2 0
x_8_12_3 0
x_8_12_4 0
x_8_12_5 0
x_8_13_0 0
x_8_13_1 0
x_8_13_2 1.0000000000000027e+00
x_8_13_3 0
x_8_13_4 0
x_8_13_5 3.1571967262777889e-16
x_8_14_0 0
x_8_14_1 0
x_8_14_2 0
x_8_14_3 0
x_8_14_4 0
x_8_14_5 0
x_8_15_0 0
x_8_15_1 -1.0061396160665481e-15
x_8_15_2 1.0000000000000027e+00
x_8_15_3 -1.2975731600306517e-15
x_8_15_4 1.0000000000000013e+00
x_8_15_5 0
x_9_10_0 0
x_9_10_1 0
x_9_10_2 0
x_9_10_3 0
x_9_10_4 0
x_9_10_5 0
x_9_11_0 0
x_9_11_1 1.0000000000000004e+00
x_9_11_2 1
x_9_11_3 3.1918911957973251e-16
x_9_11_4 1.0000000000000009e+00
x_9_11_5 0
x_9_12_0 0
x_9_12_1 0
x_9_12_2 0
x_9_12_3 0
x_9_12_4 0
x_9_12_5 0
x_9_13_0 0
x_9_13_1 0
x_9_13_2 0
x_9_13_3 0
x_9_13_4 0
x_9_13_5 0
x_9_14_0 0
x_9_14_1 0
x_9_14_2 0
x_9_14_3 0
x_9_14_4 0
x_9_14_5 0
x_9_15_0 0
x_9_15_1 0
x_9_15_2 0
x_9_15_3 0
x_9_15_4 0
x_9_15_5 0
x_10_11_0 0
x_10_11_1 0
x_10_11_2 0
x_10_11_3 0
x_10_11_4 0
x_10_11_5 0
x_10_12_0 0
x_10_12_1 1.0000000000000016e+00
x_10_12_2 0
x_10_12_3 1
x_10_12_4 0
x_10_12_5 0
x_10_13_0 0
x_10_13_1 0
x_10_13_2 0
x_10_13_3 0
x_10_13_4 0
x_10_13_5 0
x_10_14_0 0
x_10_14_1 0
x_10_14_2 0
x_10_14_3 0
x_10_14_4 0
x_10_14_5 0
x_10_15_0 0
x_10_15_1 0
x_10_15_2 0
x_10_15_3 0
x_10_15_4 0
x_10_15_5 0
x_11_12_0 0
x_11_12_1 0
x_11_12_2 0
x_11_12_3 0
x_11_12_4 0
x_11_12_5 0
x_11_13_0 0
x_11_13_1 0
x_11_13_2 0
x_11_13_3 0
x_11_13_4 0
x_11_13_5 0
x_11_14_0 0
x_11_14_1 0
x_11_14_2 0
x_11_14_3 0
x_11_14_4 0
x_11_14_5 0
x_11_15_0 0
x_11_15_1 1.0000000000000011e+00
x_11_15_2 1.0685896612017132e-15
x_11_15_3 0
x_11_15_4 0
x_11_15_5 0
x_12_13_0 0
x_12_13_1 -1.0269562977782698e-15
x_12_13_2 0
x_12_13_3 0
x_12_13_4 -2.7755575615628914e-16
x_12_13_5 -6.9388939039072284e-16
x_12_14_0 0
x_12_14_1 0
x_12_14_2 0
x_12_14_3 0
x_12_14_4 0
x_12_14_5 0
x_12_15_0 0
x_12_15_1 0
x_12_15_2 0
x_12_15_3 0
x_12_15_4 0
x_12_15_5 0
x_13_14_0 0
x_13_14_1 0
x_13_14_2 0
x_13_14_3 0
x_13_14_4 0
x_13_14_5 0
x_13_15_0 0
x_13_15_1 0
x_13_15_2 0
x_13_15_3 0
x_13_15_4 0
x_13_15_5 0
x_14_15_0 0
x_14_15_1 -4.7184478546569153e-15
x_14_15_2 9.9999999999999822e-01
x_14_15_3 0
x_14_15_4 -1.3114509478384662e-15
x_14_15_5 0
